120 1000
1 458 2 3 4 5 6 7 8 9 10 11 12 13 14 15 16 17 18 19 20 21 22 23 24 25 26 27 28 29 30 31 32 33 34 35 36 37 38 39 40 41 42 43 44 45 46 47 48 49 50 51 52 53 54 55 56 57 58 59 60 61 62 63 64 65 66 67 68 69 70 71 72 73 74 75 76 77 78 79 80 81 82 83 84 85 86 87 88 89 90 91 92 93 94 95 96 97 98 99 100 101 102 103 104 105 106 107 108 109 110 111 112 113 114 115 116 117 118 119 120
2 252 3 4 5 6 7 8 9 10 11 12 13 14 15 16 17 18 19 20 21 22 23 24 25 26 27 28 29 30 31 32 33 34 35 36 37 38 39 40 41 42 43 44 45 46 47 48 49 50 51 52 53 54 55 56 57 58 59 60 61 62 63 64 65 66 67 68 69 70 71 72 73 74 75 76 77 78 79 80 81 82 83 84 85 86 87 88 89 90 91 92 93 94 95 96 97 98 99 100 101 102 103 104 105 106 107 108 109 110 111 112 113 114 115 116 117 118 119 120
3 290 4 5 6 7 8 9 10 11 12 13 14 15 16 17 18 19 20 21 22 23 24 25 26 27 28 29 30 31 32 33 34 35 36 37 38 39 40 41 42 43 44 45 46 47 48 49 50 51 52 53 54 55 56 57 58 59 60 61 62 63 64 65 66 67 68 69 70 71 72 73 74 75 76 77 78 79 80 81 82 83 84 85 86 87 88 89 90 91 92 93 94 95 96 97 98 99 100 101 102 103 104 105 106 107 108 109 110 111 112 113 114 115 116 117 118 119 120
4 497 9 11 12 20 22 23 25 29 32 36 37 41 48 49 53 56 57 58 59 60 61 64 66 67 68 74 78 79 80 81 82 83 84 88 91 92 95 100 105 106 110 111 113 115 117 120
5 250 6 8 9 11 12 15 20 22 23 25 28 29 30 31 32 36 37 38 39 40 41 42 43 45 47 48 49 51 53 54 56 57 58 59 60 61 63 64 65 66 67 68 70 71 74 75 76 78 79 80 81 82 83 84 85 88 91 92 95 96 97 99 100 102 103 105 106 107 109 110 111 113 114 115 116 117 119 120
6 253 8 9 11 12 15 20 22 23 25 28 29 30 31 32 36 37 38 39 40 41 42 43 45 47 48 49 51 53 54 56 57 58 59 60 61 63 64 65 66 67 68 70 71 74 75 76 78 79 80 81 82 83 84 85 88 91 92 95 96 97 99 100 102 103 105 106 107 109 110 111 113 114 115 116 117 119 120
7 446 9 11 12 20 22 23 25 29 32 36 37 41 48 49 53 56 57 58 59 60 61 64 65 66 67 68 74 78 79 80 81 82 83 84 88 91 92 95 100 105 106 110 111 113 115 117 120
8 276 9 11 12 15 20 22 23 25 28 29 30 31 32 36 37 38 39 40 41 42 43 44 45 47 48 49 51 53 54 55 56 57 58 59 60 61 63 64 65 66 67 68 70 71 74 75 76 78 79 80 81 82 83 84 85 88 91 92 94 95 96 97 99 100 102 103 105 106 107 109 110 111 113 114 115 116 117 119 120
9 278 10 11 12 13 14 15 16 17 18 19 20 21 22 23 24 25 26 27 28 29 30 31 32 33 34 35 36 37 38 39 40 41 42 43 44 45 46 47 48 49 50 51 52 53 54 55 56 57 58 59 60 61 62 63 64 65 66 67 68 69 70 71 72 73 74 75 76 77 78 79 80 81 82 83 84 85 86 87 88 89 90 91 92 93 94 95 96 97 98 99 100 101 102 103 104 105 106 107 108 109 110 111 112 113 114 115 116 117 118 119 120
10 387 12 20 23 25 29 32 36 37 48 49 53 58 59 61 64 66 67 68 74 78 79 80 81 82 88 91 95 105 110 111 113 115 117
11 274 12 15 17 18 19 20 21 22 23 24 25 26 27 28 29 30 31 32 33 34 35 36 37 38 39 40 41 42 43 44 45 46 47 48 49 50 51 52 53 54 55 56 57 58 59 60 61 62 63 64 65 66 67 68 69 70 71 73 74 75 76 78 79 80 81 82 83 84 85 86 87 88 90 91 92 94 95 96 97 98 99 100 101 102 103 104 105 106 107 109 110 111 112 113 114 115 116 117 119 120
12 339 13 14 15 16 17 18 19 20 21 22 23 24 25 26 27 28 29 30 31 32 33 34 35 36 37 38 39 40 41 42 43 44 45 46 47 48 49 50 51 52 53 54 55 56 57 58 59 60 61 62 63 64 65 66 67 68 69 70 71 72 73 74 75 76 77 78 79 80 81 82 83 84 85 86 87 88 89 90 91 92 93 94 95 96 97 98 99 100 101 102 103 104 105 106 107 108 109 110 111 112 113 114 115 116 117 118 119 120
13 462 20 23 29 32 36 37 48 49 53 58 59 61 64 66 67 68 74 78 79 80 81 82 88 91 95 105 110 111 115 117
14 268 23 29 32 37 48 49 53 58 59 61 64 66 68 74 79 80 82 88 91 95 110 111 115
15 270 20 22 23 25 28 29 30 32 36 37 38 39 40 41 42 43 45 47 48 49 51 53 56 57 58 59 60 61 63 64 65 66 67 68 70 71 74 75 78 79 80 81 82 83 84 85 88 91 92 95 96 97 99 100 103 105 106 107 110 111 113 114 115 116 117 120
16 472 23 29 32 37 48 49 53 58 59 64 66 68 80 82 88 91 95 110 111 115
17 258 20 22 23 25 29 32 36 37 41 48 49 53 58 59 61 64 66 67 68 74 78 79 80 81 82 88 91 92 95 105 110 111 113 115 117
18 270 20 22 23 25 29 32 36 37 41 48 49 53 56 57 58 59 60 61 64 66 67 68 74 78 79 80 81 82 83 84 88 91 92 95 100 105 106 110 111 113 115 117 120
19 377 20 22 23 25 29 32 36 37 41 48 49 53 58 59 61 64 66 67 68 74 78 79 80 81 82 88 91 95 105 110 111 113 115 117
20 276 21 22 23 24 25 26 27 28 29 30 31 32 33 34 35 36 37 38 39 40 41 42 43 44 45 46 47 48 49 50 51 52 53 54 55 56 57 58 59 60 61 62 63 64 65 66 67 68 69 70 71 72 73 74 75 76 77 78 79 80 81 82 83 84 85 86 87 88 90 91 92 94 95 96 97 98 99 100 101 102 103 104 105 106 107 109 110 111 112 113 114 115 116 117 119 120
21 347 22 23 25 29 32 36 37 41 48 49 53 58 59 60 61 64 66 67 68 74 78 79 80 81 82 88 91 92 95 105 110 111 113 115 117
22 484 23 24 25 26 27 28 29 30 31 32 33 34 35 36 37 38 39 40 41 42 43 44 45 46 47 48 49 50 51 52 53 54 55 56 57 58 59 60 61 62 63 64 65 66 67 68 69 70 71 72 73 74 75 76 77 78 79 80 81 82 83 84 85 86 87 88 90 91 92 94 95 96 97 98 99 100 101 102 103 104 105 106 107 109 110 111 112 113 114 115 116 117 119 120
23 253 24 25 26 27 28 29 30 31 32 33 34 35 36 37 38 39 40 41 42 43 44 45 46 47 48 49 50 51 52 53 54 55 56 57 58 59 60 61 62 63 64 65 66 67 68 69 70 71 72 73 74 75 76 77 78 79 80 81 82 83 84 85 86 87 88 89 90 91 92 93 94 95 96 97 98 99 100 101 102 103 104 105 106 107 108 109 110 111 112 113 114 115 116 117 118 119 120
24 263 25 29 32 36 37 41 48 49 53 58 59 60 61 64 66 67 68 74 78 79 80 81 82 88 91 92 95 105 110 111 113 115 117
25 490 26 27 28 29 30 31 32 33 34 35 36 37 38 39 40 41 42 43 44 45 46 47 48 49 50 51 52 53 54 55 56 57 58 59 60 61 62 63 64 65 66 67 68 69 70 71 72 73 74 75 76 77 78 79 80 81 82 83 84 85 86 87 88 90 91 92 94 95 96 97 98 99 100 101 102 103 104 105 106 107 109 110 111 112 113 114 115 116 117 119 120
26 252 29 32 36 37 41 45 48 49 53 56 57 58 59 60 61 64 65 66 67 68 74 78 79 80 81 82 83 84 88 91 92 95 97 100 105 106 110 111 113 115 117 120
27 258 29 32 36 37 41 48 49 53 58 59 61 64 66 67 68 74 78 79 80 81 82 88 91 95 105 110 111 113 115 117
28 414 29 30 31 32 36 37 38 39 40 41 42 43 45 47 48 49 51 53 54 56 57 58 59 60 61 63 64 65 66 67 68 70 71 74 75 78 79 80 81 82 83 84 85 88 91 92 95 96 97 99 100 102 103 105 106 107 110 111 113 114 115 116 117 119 120
29 250 30 31 32 33 34 35 36 37 38 39 40 41 42 43 44 45 46 47 48 49 50 51 52 53 54 55 56 57 58 59 60 61 62 63 64 65 66 67 68 69 70 71 72 73 74 75 76 77 78 79 80 81 82 83 84 85 86 87 88 90 91 92 93 94 95 96 97 98 99 100 101 102 103 104 105 106 107 108 109 110 111 112 113 114 115 116 117 119 120
30 336 31 32 36 37 38 39 40 41 42 43 45 47 48 49 51 53 54 55 56 57 58 59 60 61 63 64 65 66 67 68 70 71 74 75 76 78 79 80 81 82 83 84 85 88 91 92 95 96 97 99 100 102 103 105 106 107 109 110 111 113 114 115 116 117 119 120
31 493 32 36 37 38 41 42 45 47 48 49 53 56 57 58 59 60 61 64 65 66 67 68 71 74 75 78 79 80 81 82 83 84 85 88 91 92 95 96 97 100 103 105 106 110 111 113 114 115 116 117 120
32 253 33 34 35 36 37 38 39 40 41 42 43 44 45 46 47 48 49 50 51 52 53 54 55 56 57 58 59 60 61 62 63 64 65 66 67 68 69 70 71 72 73 74 75 76 77 78 79 80 81 82 83 84 85 86 87 88 89 90 91 92 93 94 95 96 97 98 99 100 101 102 103 104 105 106 107 108 109 110 111 112 113 114 115 116 117 118 119 120
33 254 36 37 48 49 53 58 59 61 64 66 67 68 74 78 79 80 81 82 88 91 95 105 110 111 113 115 117
34 470 36 37 41 45 48 49 53 56 57 58 59 60 61 64 65 66 67 68 74 78 79 80 81 82 83 84 88 91 92 95 97 100 105 106 110 111 113 115 117 120
35 257 36 37 41 48 49 53 56 57 58 59 60 61 64 66 67 68 74 78 79 80 81 82 83 84 88 91 92 95 100 105 106 110 111 113 115 117 120
36 273 37 38 39 40 41 42 43 44 45 46 47 48 49 50 51 52 53 54 55 56 57 58 59 60 61 62 63 64 65 66 67 68 69 70 71 72 73 74 75 76 77 78 79 80 81 82 83 84 85 86 87 88 90 91 92 93 94 95 96 97 98 99 100 101 102 103 104 105 106 107 108 109 110 111 112 113 114 115 116 117 119 120
37 403 38 39 40 41 42 43 44 45 46 47 48 49 50 51 52 53 54 55 56 57 58 59 60 61 62 63 64 65 66 67 68 69 70 71 72 73 74 75 76 77 78 79 80 81 82 83 84 85 86 87 88 89 90 91 92 93 94 95 96 97 98 99 100 101 102 103 104 105 106 107 108 109 110 111 112 113 114 115 116 117 118 119 120
38 262 39 40 41 42 43 44 45 47 48 49 51 53 54 55 56 57 58 59 60 61 63 64 65 66 67 68 70 71 74 75 76 78 79 80 81 82 83 84 85 88 91 92 94 95 96 97 99 100 102 103 105 106 107 109 110 111 113 114 115 116 117 119 120
39 335 40 41 42 43 45 47 48 49 51 53 56 57 58 59 60 61 63 64 65 66 67 68 70 71 74 75 78 79 80 81 82 83 84 85 88 91 92 95 96 97 99 100 103 105 106 107 110 111 113 114 115 116 117 120
40 433 41 42 43 45 47 48 49 51 53 54 56 57 58 59 60 61 63 64 65 66 67 68 70 71 74 75 78 79 80 81 82 83 84 85 88 91 92 95 96 97 99 100 103 105 106 107 110 111 113 114 115 116 117 120
41 273 42 43 44 45 46 47 48 49 50 51 52 53 54 55 56 57 58 59 60 61 62 63 64 65 66 67 68 69 70 71 73 74 75 76 78 79 80 81 82 83 84 85 86 88 90 91 92 94 95 96 97 98 99 100 101 102 103 104 105 106 107 109 110 111 112 113 114 115 116 117 119 120
42 294 43 45 47 48 49 51 53 54 56 57 58 59 60 61 63 64 65 66 67 68 70 71 74 75 78 79 80 81 82 83 84 85 88 91 92 95 96 97 99 100 102 103 105 106 107 110 111 113 114 115 116 117 119 120
43 375 45 47 48 49 51 53 56 57 58 59 60 61 63 64 65 66 67 68 70 71 74 75 78 79 80 81 82 83 84 85 88 91 92 95 96 97 99 100 103 105 106 107 110 111 113 114 115 116 117 120
44 276 45 48 49 53 56 57 58 59 60 61 64 65 66 67 68 74 78 79 80 81 82 83 84 88 91 92 95 97 100 105 106 110 111 113 115 117 120
45 349 47 48 49 51 53 54 55 56 57 58 59 60 61 63 64 65 66 67 68 70 71 74 75 76 78 79 80 81 82 83 84 85 88 91 92 94 95 96 97 99 100 102 103 105 106 107 109 110 111 113 114 115 116 117 119 120
46 422 48 49 53 58 59 61 64 66 67 68 74 78 79 80 81 82 88 91 95 105 110 111 113 115 117
47 276 48 49 51 53 54 56 57 58 59 60 61 63 64 65 66 67 68 70 71 74 75 78 79 80 81 82 83 84 85 88 91 92 95 96 97 99 100 102 103 105 106 107 110 111 113 114 115 116 117 119 120
48 302 49 50 51 52 53 54 55 56 57 58 59 60 61 62 63 64 65 66 67 68 69 70 71 72 73 74 75 76 77 78 79 80 81 82 83 84 85 86 87 88 89 90 91 92 93 94 95 96 97 98 99 100 101 102 103 104 105 106 107 108 109 110 111 112 113 114 115 116 117 118 119 120
49 446 50 51 52 53 54 55 56 57 58 59 60 61 62 63 64 65 66 67 68 69 70 71 72 73 74 75 76 77 78 79 80 81 82 83 84 85 86 87 88 89 90 91 92 93 94 95 96 97 98 99 100 101 102 103 104 105 106 107 108 109 110 111 112 113 114 115 116 117 118 119 120
50 274 53 58 59 60 61 64 66 67 68 74 78 79 80 81 82 84 88 91 92 95 105 110 111 113 115 117 120
51 280 53 56 57 58 59 60 61 63 64 65 66 67 68 70 71 74 75 78 79 80 81 82 83 84 85 88 91 92 95 96 97 99 100 103 105 106 107 110 111 113 114 115 116 117 120
52 352 53 58 59 61 64 66 67 68 74 78 79 80 81 82 88 91 92 95 105 110 111 113 115 117
53 318 54 55 56 57 58 59 60 61 62 63 64 65 66 67 68 69 70 71 72 73 74 75 76 77 78 79 80 81 82 83 84 85 86 87 88 89 90 91 92 93 94 95 96 97 98 99 100 101 102 103 104 105 106 107 108 109 110 111 112 113 114 115 116 117 118 119 120
54 330 56 57 58 59 60 61 64 65 66 67 68 71 74 75 78 79 80 81 82 83 84 85 88 91 92 95 96 97 99 100 103 105 106 110 111 113 114 115 116 117 120
55 402 56 57 58 59 60 61 64 65 66 67 68 71 74 78 79 80 81 82 83 84 88 91 92 95 97 100 103 105 106 110 111 113 115 117 120
56 269 57 58 59 60 61 63 64 65 66 67 68 70 71 74 75 76 78 79 80 81 82 83 84 85 88 91 92 94 95 96 97 99 100 102 103 105 106 107 109 110 111 112 113 114 115 116 117 119 120
57 329 58 59 60 61 63 64 65 66 67 68 70 71 74 75 76 78 79 80 81 82 83 84 85 88 91 92 94 95 96 97 99 100 102 103 105 106 107 109 110 111 112 113 114 115 116 117 119 120
58 436 59 60 61 62 63 64 65 66 67 68 69 70 71 72 73 74 75 76 77 78 79 80 81 82 83 84 85 86 87 88 90 91 92 93 94 95 96 97 98 99 100 101 102 103 104 105 106 107 108 109 110 111 112 113 114 115 116 117 118 119 120
59 254 60 61 62 63 64 65 66 67 68 69 70 71 72 73 74 75 76 77 78 79 80 81 82 83 84 85 86 87 88 89 90 91 92 93 94 95 96 97 98 99 100 101 102 103 104 105 106 107 108 109 110 111 112 113 114 115 116 117 118 119 120
60 310 61 62 63 64 65 66 67 68 70 71 73 74 75 76 78 79 80 81 82 83 84 85 86 88 91 92 94 95 96 97 99 100 101 102 103 104 105 106 107 109 110 111 112 113 114 115 116 117 119 120
61 357 62 63 64 65 66 67 68 69 70 71 72 73 74 75 76 77 78 79 80 81 82 83 84 85 86 87 88 90 91 92 93 94 95 96 97 98 99 100 101 102 103 104 105 106 107 108 109 110 111 112 113 114 115 116 117 119 120
62 268 64 66 67 68 74 78 79 80 81 82 84 88 91 92 95 100 105 110 111 113 115 117 120
63 375 64 65 66 67 68 70 71 74 75 78 79 80 81 82 83 84 85 88 91 92 95 96 97 99 100 103 105 106 107 110 111 113 114 115 116 117 120
64 410 65 66 67 68 69 70 71 72 73 74 75 76 77 78 79 80 81 82 83 84 85 86 87 88 89 90 91 92 93 94 95 96 97 98 99 100 101 102 103 104 105 106 107 108 109 110 111 112 113 114 115 116 117 118 119 120
65 262 66 67 68 70 71 74 75 76 78 79 80 81 82 83 84 85 88 91 92 94 95 96 97 99 100 102 103 105 106 107 109 110 111 113 114 115 116 117 119 120
66 328 67 68 69 70 71 72 73 74 75 76 77 78 79 80 81 82 83 84 85 86 87 88 89 90 91 92 93 94 95 96 97 98 99 100 101 102 103 104 105 106 107 108 109 110 111 112 113 114 115 116 117 118 119 120
67 352 68 69 70 71 72 73 74 75 76 77 78 79 80 81 82 83 84 85 86 87 88 90 91 92 94 95 96 97 98 99 100 101 102 103 104 105 106 107 109 110 111 112 113 114 115 116 117 119 120
68 275 69 70 71 72 73 74 75 76 77 78 79 80 81 82 83 84 85 86 87 88 89 90 91 92 93 94 95 96 97 98 99 100 101 102 103 104 105 106 107 108 109 110 111 112 113 114 115 116 117 118 119 120
69 373 74 78 79 80 81 82 88 91 95 105 110 111 113 115 117
70 423 71 74 75 78 79 80 81 82 83 84 85 88 91 92 95 96 97 99 100 103 105 106 107 110 111 113 114 115 116 117 120
71 262 74 75 76 78 79 80 81 82 83 84 85 88 91 92 95 96 97 99 100 102 103 105 106 107 109 110 111 113 114 115 116 117 119 120
72 315 74 78 79 80 81 82 88 91 95 105 110 111 113 115 117
73 426 74 78 79 80 81 82 84 88 91 92 95 105 110 111 113 115 117 120
74 266 75 76 77 78 79 80 81 82 83 84 85 86 87 88 90 91 92 93 94 95 96 97 98 99 100 101 102 103 104 105 106 107 108 109 110 111 112 113 114 115 116 117 119 120
75 308 76 78 79 80 81 82 83 84 85 88 91 92 95 96 97 99 100 102 103 105 106 107 109 110 111 113 114 115 116 117 119 120
76 388 78 79 80 81 82 83 84 85 88 91 92 95 97 100 103 105 106 110 111 113 114 115 116 117 120
77 251 78 79 80 81 82 88 91 95 105 110 111 113 115 117
78 361 79 80 81 82 83 84 85 86 87 88 90 91 92 94 95 96 97 98 99 100 101 102 103 104 105 106 107 109 110 111 112 113 114 115 116 117 119 120
79 386 80 81 82 83 84 85 86 87 88 90 91 92 93 94 95 96 97 98 99 100 101 102 103 104 105 106 107 108 109 110 111 112 113 114 115 116 117 119 120
80 272 81 82 83 84 85 86 87 88 89 90 91 92 93 94 95 96 97 98 99 100 101 102 103 104 105 106 107 108 109 110 111 112 113 114 115 116 117 118 119 120
81 342 82 83 84 85 86 87 88 90 91 92 93 94 95 96 97 98 99 100 101 102 103 104 105 106 107 108 109 110 111 112 113 114 115 116 117 119 120
82 374 83 84 85 86 87 88 89 90 91 92 93 94 95 96 97 98 99 100 101 102 103 104 105 106 107 108 109 110 111 112 113 114 115 116 117 118 119 120
83 254 84 85 88 91 92 94 95 96 97 99 100 102 103 105 106 107 109 110 111 112 113 114 115 116 117 119 120
84 372 85 88 91 92 94 95 96 97 99 100 102 103 105 106 107 109 110 111 112 113 114 115 116 117 119 120
85 408 88 91 92 95 96 97 99 100 102 103 105 106 107 109 110 111 113 114 115 116 117 119 120
86 287 88 91 92 95 105 110 111 113 115 117
87 305 88 91 95 105 110 111 113 115 117
88 442 89 90 91 92 93 94 95 96 97 98 99 100 101 102 103 104 105 106 107 108 109 110 111 112 113 114 115 116 117 118 119 120
89 252 91 95 111 115
90 306 91 95 105 110 111 113 115 117
91 364 92 93 94 95 96 97 98 99 100 101 102 103 104 105 106 107 108 109 110 111 112 113 114 115 116 117 118 119 120
92 302 94 95 96 97 99 100 101 102 103 104 105 106 107 109 110 111 112 113 114 115 116 117 119 120
93 334 95 105 110 111 115 117
94 363 95 97 100 105 106 110 111 113 115 117 120
95 265 96 97 98 99 100 101 102 103 104 105 106 107 108 109 110 111 112 113 114 115 116 117 118 119 120
96 372 97 99 100 102 103 105 106 107 110 111 113 114 115 116 117 119 120
97 396 99 100 102 103 105 106 107 109 110 111 113 114 115 116 117 119 120
98 292 105 110 111 113 115 117
99 312 100 102 103 105 106 107 110 111 113 114 115 116 117 120
100 485 102 103 105 106 107 109 110 111 112 113 114 115 116 117 119 120
101 255 105 110 111 113 115 117
102 260 103 105 106 110 111 113 114 115 116 117 120
103 436 105 106 107 109 110 111 113 114 115 116 117 119 120
104 256 105 110 111 113 115 117
105 308 106 107 108 109 110 111 112 113 114 115 116 117 119 120
106 445 107 109 110 111 112 113 114 115 116 117 119 120
107 270 110 111 113 114 115 116 117 120
108 285 110 111 115
109 419 110 111 113 114 115 116 117 120
110 275 111 112 113 114 115 116 117 118 119 120
111 306 112 113 114 115 116 117 118 119 120
112 427 113 115 117 120
113 250 114 115 116 117 119 120
114 323 115 116 117 119 120
115 490 116 117 118 119 120
116 252 117 119 120
117 258 119 120
118 496
119 250 120
120 254
